4400979753352317263506,13,1,2,06,14,1,2,011,2,1,2,012,3,1,2,05,8,1,2,01,14,1,2,08,13,1,2,06,9,1,2,04,2,1,2,014,3,1,2,014,3,1,2,09,15,1,2,07,8,1,2,013,14,1,2,012,4,1,2,05,14,1,2,02,14,1,2,03,11,1,2,012,8,1,2,013,1,1,2,04,13,1,2,01,5,1,2,05,14,1,2,05,13,1,2,011,5,1,2,07,6,1,2,013,12,1,2,06,15,1,2,09,10,1,2,01,6,1,2,013,9,1,2,03,2,1,2,015,7,1,2,010,3,1,2,011,7,1,2,010,8,1,2,09,15,1,2,014,3,1,2,015,8,1,2,07,14,1,2,015,2,1,2,03,9,1,2,03,10,1,2,011,4,1,2,07,9,1,2,08,2,1,2,013,9,1,2,09,13,1,2,09,11,1,2,03,5,1,2,0